N = 80;
W = 40;
H = 40;
ItemWidth = [ 33, 27, 27, 33, 17, 29, 4, 27, 32, 12, 13, 18, 7, 34, 30, 9, 14, 18, 30, 29, 33, 12, 27, 16, 12, 12, 24, 19, 29, 4, 5, 12, 23, 7, 24, 14, 18, 24, 30, 5, 17, 4, 19, 17, 30, 29, 13, 28, 8, 15, 24, 25, 19, 25, 5, 10, 2, 33, 30, 25, 16, 17, 5, 31, 18, 16, 34, 20, 16, 19, 29, 24, 27, 13, 33, 20, 7, 21, 6, 34 ];
ItemHeight = [ 34, 34, 34, 34, 34, 33, 31, 31, 30, 30, 29, 29, 27, 26, 26, 26, 26, 26, 24, 24, 23, 23, 23, 21, 20, 20, 20, 19, 19, 18, 17, 17, 17, 17, 16, 16, 16, 16, 15, 15, 15, 15, 14, 14, 13, 12, 12, 12, 12, 12, 11, 11, 10, 10, 10, 9, 8, 8, 7, 7, 6, 6, 6, 6, 6, 5, 5, 5, 4, 4, 4, 4, 4, 3, 3, 3, 2, 2, 2, 2 ];
